SAT
-1 -100 -99 -98 -97 -96 95 -90 86 92 53 -88 54 52 57 48 -40 -2 -23 87 -58 -84 -11 -45 -70 49 63 75 7 -25 -50 51 -39 26 68 37 -47 10 -36 69 -20 -38 -93 30 16 -18 -83 -74 80 -56 14 -73 3 -35 62 61 -46 -29 41 94 -59 -81 55 -60 27 64 -17 -5 -85 -12 -6 89 79 43 -78 21 66 -33 -24 -13 -44 91 -8 -22 15 9 -77 42 82 -32 4 72 28 -65 71 -34 -31 -76 -67 19 0
